letting n =  10
letting blocks =  [[1, 3], [1, 4], [1, 6], [2, 2], [2, 3], [2, 10], [3, 4], [3, 9], [3, 10], [4, 4], [4, 6], [4, 9], [5, 1], [5, 3], [5, 6], [5, 8], [5, 10], [6, 1], [6, 2], [6, 3], [6, 9], [7, 1], [7, 2], [7, 5], [7, 9], [8, 1], [8, 2], [8, 4], [8, 8], [8, 9], [9, 2], [9, 3], [9, 4], [9, 5], [10, 1], [10, 4], [10, 6], [10, 9]]
